POSCAR file written by OVITO Basic 3.10.4
1
13.106 0.0 0.0
0.0 13.139 0.0
0.0 0.0 13.094
H Li C N O F S 
96 3 54 3 60 18 6 
Cartesian
1.166 11.486 10.317
1.688 13.083 10.954
2.481 11.589 11.497
4.058 13.069 5.627
3.184 11.524 5.71
2.32 13.08 5.964
2.446 4.877 12.335
1.187 3.796 13.027
1.046 4.4 11.362
5.516 0.056 11.9
6.178 1.632 11.418
5.588 1.36 13.094
6.929 11.423 2.69
8.685 11.093 2.89
8.128 12.533 2.011
7.212 13.061 8.177
5.681 13.073 7.275
6.626 11.554 7.456
11.019 11.479 6.282
11.754 11.928 4.704
12.613 10.856 5.83
7.768 7.983 3.108
7.558 8.115 4.868
7.404 9.564 3.816
1.051 10.329 2.675
1.627 10.942 4.264
0.007 11.361 3.664
0.345 5.389 5.497
0.0 5.531 3.76
1.634 5.914 4.403
7.597 8.303 0.455
8.594 9.762 0.127
7.639 9.634 1.62
12.631 5.866 1.711
11.109 4.951 1.772
11.634 5.757 0.253
7.816 12.688 13.025
7.895 13.04 11.264
9.372 12.673 12.181
5.832 7.587 11.321
5.991 8.001 13.042
4.975 9.003 11.949
0.639 0.0 11.451
0.537 1.759 11.804
1.98 0.827 12.256
1.626 1.731 6.076
1.531 0.008 6.501
0.15 1.111 6.831
9.853 5.627 5.014
9.915 4.414 6.34
8.639 5.65 6.302
7.778 1.271 1.917
8.053 2.876 1.207
9.403 1.971 1.973
9.404 4.38 8.562
8.51 5.413 9.73
7.861 3.834 9.235
12.783 3.244 13.051
13.106 2.564 11.442
13.019 4.343 11.684
2.896 1.496 3.187
3.307 1.002 4.866
3.867 0.044 3.477
6.963 5.457 3.982
6.03 5.365 2.473
5.2 5.59 4.051
10.421 8.693 13.025
11.29 8.397 11.48
12.05 8.002 13.036
7.471 3.993 11.588
7.106 4.91 13.066
7.041 5.705 11.455
12.067 12.786 1.838
10.793 13.058 3.077
10.372 12.952 1.354
11.925 7.375 3.725
13.053 7.893 2.454
13.068 8.683 4.068
4.821 9.083 2.123
5.41 8.513 3.723
3.849 9.349 3.578
3.615 3.547 1.253
3.325 4.775 0.002
4.971 4.531 0.682
3.795 12.634 0.73
5.001 12.226 2.0
3.531 13.139 2.406
2.289 7.124 1.218
1.508 8.206 0.046
3.285 7.94 0.003
5.4 0.748 9.564
4.656 1.018 7.95
3.834 0.023 9.171
3.659 6.108 10.612
4.566 5.168 11.816
5.259 5.482 10.187
2.31 7.037 9.144
3.391 6.746 5.828
0.546 6.481 10.714
2.532 12.307 8.359
2.02 12.09 10.641
3.251 12.529 6.134
3.636 2.658 12.154
1.75 4.058 12.127
5.423 1.138 12.035
7.239 12.165 5.084
7.915 11.869 2.854
6.683 12.639 7.316
9.718 9.952 4.749
11.628 11.131 5.441
7.94 8.624 3.979
0.74 8.253 4.078
0.764 10.571 3.704
0.557 5.968 4.592
9.884 7.402 1.032
8.238 9.072 0.897
11.6 5.83 1.345
7.019 10.475 12.106
8.308 12.439 12.079
5.894 8.415 12.034
1.123 0.93 9.154
1.196 0.941 11.502
1.24 1.016 6.81
8.894 3.624 3.812
9.26 4.995 5.684
8.336 2.207 2.024
10.752 3.936 10.65
8.778 4.388 9.46
12.605 3.374 11.979
4.755 3.133 3.676
3.664 1.059 3.834
6.031 5.1 3.533
9.263 6.577 12.277
11.101 8.024 12.49
7.564 4.969 12.075
11.834 10.439 2.739
11.036 12.564 2.133
12.44 8.238 3.29
4.294 6.621 1.926
4.532 8.65 3.086
3.899 4.544 0.903
3.214 10.207 1.114
3.937 12.341 1.775
2.407 8.051 0.648
4.511 3.09 9.884
4.464 0.906 9.02
4.345 5.267 10.75
1.846 4.044 7.798
6.739 3.376 6.96
5.038 10.628 9.806
1.26 8.862 7.032
12.015 7.312 6.741
8.723 10.556 8.673
4.434 4.696 7.673
2.501 10.114 9.143
10.904 8.882 8.595
3.014 12.224 9.625
3.589 12.436 7.518
1.356 12.271 8.034
2.408 2.894 11.628
4.123 1.525 11.589
4.203 3.345 12.99
7.974 12.646 4.05
7.403 13.003 6.139
6.551 11.157 5.068
11.073 9.981 4.802
9.349 8.812 4.112
8.963 10.802 5.196
0.198 9.456 4.392
0.106 7.304 4.813
1.639 8.057 3.275
9.358 8.521 1.59
10.934 7.009 1.796
9.484 6.847 0.021
8.193 11.055 11.749
7.062 9.175 11.722
6.089 11.027 12.673
1.824 1.273 10.264
1.842 1.315 8.07
0.037 0.372 9.135
8.394 4.108 4.977
7.964 2.799 3.268
9.988 3.885 3.337
9.409 3.757 10.574
11.198 3.288 11.755
11.438 4.57 9.864
4.89 1.789 3.798
5.997 3.679 3.665
3.701 3.744 3.591
10.608 6.686 12.414
8.955 5.258 12.213
8.47 7.504 12.222
10.792 11.163 2.257
11.446 9.141 2.805
12.927 10.879 3.058
3.853 7.402 2.945
3.562 5.479 1.928
5.191 6.898 1.146
3.252 11.133 2.104
2.542 9.124 1.579
3.7 10.326 0.0
3.742 2.044 9.491
3.686 4.086 10.293
5.732 3.128 9.872
3.021 4.605 5.497
3.621 2.452 6.643
6.132 5.835 6.08
6.69 5.544 8.495
3.981 8.229 10.142
4.433 9.011 7.798
0.632 8.375 9.593
0.056 10.606 8.635
9.843 6.575 8.055
9.642 8.427 6.37
9.253 8.757 10.59
10.775 10.72 10.353
1.557 5.34 7.983
0.826 3.461 7.17
2.054 3.447 8.968
8.055 3.489 7.069
6.295 2.485 7.84
6.434 3.011 5.713
4.615 11.001 11.023
6.27 10.134 9.911
5.041 11.671 8.981
0.062 8.746 6.476
2.0 9.706 6.321
1.831 7.659 7.094
12.791 6.78 7.696
11.797 6.393 5.802
12.611 8.371 6.202
8.212 11.532 9.408
9.297 11.069 7.589
7.752 9.703 8.342
5.973 5.033 7.306
3.369 3.899 6.744
1.048 9.517 8.759
3.911 9.31 9.141
9.994 9.655 9.686
10.389 7.819 7.482
