POSCAR file written by OVITO Basic 3.10.4
1
13.111 0.0 0.0
0.0 13.135 0.0
0.0 0.0 13.132
H Li C N O F S 
96 5 58 5 68 30 10 
Cartesian
8.553 11.939 3.288
9.922 13.102 3.247
9.262 12.536 4.796
12.554 8.079 1.891
10.844 7.63 2.07
11.342 8.892 0.89
5.647 0.781 7.238
4.26 1.822 7.714
4.018 0.098 7.357
6.944 0.963 12.819
7.964 0.098 11.65
7.628 1.853 11.45
12.201 0.586 1.636
13.1 0.58 0.08
11.402 0.063 0.146
11.984 6.256 0.818
11.295 5.493 2.268
13.034 5.284 1.861
8.863 1.181 4.981
9.927 0.633 6.322
10.584 1.592 4.978
7.033 5.05 8.794
6.349 4.955 7.157
6.299 3.532 8.254
12.383 6.764 12.993
11.376 7.22 11.576
13.099 7.65 11.638
12.253 1.529 10.661
13.082 1.847 12.2
11.332 2.209 12.01
6.989 4.837 5.058
6.494 4.508 3.362
7.592 3.402 4.215
1.724 2.967 6.339
2.842 3.544 7.593
2.364 4.613 6.23
9.474 11.471 11.929
8.439 12.85 12.438
10.21 12.98 12.489
8.029 13.104 6.627
9.062 11.688 6.92
7.413 11.782 7.631
13.102 11.757 5.356
11.345 11.767 5.735
12.379 13.135 6.201
11.365 12.971 0.03
13.083 12.751 0.425
11.894 11.441 0.746
5.139 7.931 4.507
5.129 7.61 2.738
6.119 6.62 3.833
0.019 5.353 4.411
0.704 6.017 5.91
0.44 7.071 4.478
1.901 5.486 9.562
0.25 5.715 10.236
0.664 6.333 8.622
0.154 0.098 8.677
1.802 0.625 8.272
1.178 0.78 9.95
1.759 7.002 11.241
1.691 7.371 12.999
0.226 6.889 12.118
4.131 2.076 12.965
3.909 2.454 11.243
4.874 3.54 12.302
1.664 12.231 12.177
0.086 11.398 12.397
0.287 13.098 12.874
0.131 12.421 6.657
1.694 13.057 7.216
1.247 11.339 7.503
6.413 11.955 5.142
5.739 10.95 6.472
4.692 11.541 5.163
8.501 6.972 3.224
8.826 8.506 2.388
9.291 8.285 4.11
6.719 8.572 1.571
5.828 8.628 0.011
7.415 9.409 0.176
7.884 3.172 0.037
8.439 3.845 1.585
6.689 3.812 1.176
9.303 9.67 7.96
7.981 9.218 9.091
8.809 7.978 8.125
12.434 10.149 12.739
13.111 10.511 11.137
11.664 11.391 11.74
0.108 6.43 2.402
0.046 7.515 0.97
0.534 8.141 2.56
4.96 4.524 0.018
4.326 3.834 1.528
3.333 3.826 0.029
7.523 9.527 6.681
11.217 10.702 7.653
3.545 11.575 7.056
3.497 0.314 10.933
2.685 6.773 6.48
10.444 10.36 2.738
9.489 12.243 3.766
11.529 8.462 1.879
6.039 0.91 9.729
4.706 0.827 7.797
7.216 0.887 11.761
12.139 3.051 1.094
12.134 0.764 0.558
12.019 5.368 1.458
8.216 2.855 6.756
9.711 1.444 5.62
6.887 4.396 7.928
12.281 4.54 11.803
12.363 6.885 11.905
12.309 2.209 11.517
4.667 3.928 5.454
6.726 4.061 4.332
2.605 3.588 6.527
8.793 12.359 9.665
9.365 12.56 11.934
8.312 12.348 7.366
12.174 12.351 3.084
12.202 12.375 5.433
12.062 12.523 0.745
2.934 6.718 4.301
5.17 7.158 3.733
0.735 6.074 4.818
0.955 3.175 9.184
0.831 5.516 9.332
0.926 0.846 8.887
2.728 4.863 12.17
1.306 6.732 12.2
3.997 2.888 12.243
0.811 12.289 9.801
0.575 12.341 12.138
0.878 12.369 7.455
7.203 9.673 4.403
5.694 11.171 5.402
8.542 8.059 3.345
7.193 6.243 0.718
6.812 8.548 0.481
7.702 3.951 0.785
10.555 9.772 10.151
8.944 8.918 8.67
12.184 10.428 11.71
2.251 5.751 1.254
0.582 7.275 1.892
4.059 4.389 0.625
9.731 4.538 9.95
11.071 7.793 6.386
1.138 1.34 3.472
5.206 1.082 0.561
5.98 11.886 0.979
1.351 10.443 2.236
6.984 7.299 10.775
4.207 11.428 11.349
0.482 8.905 9.173
5.079 7.816 7.508
9.508 5.941 7.688
3.73 1.077 2.882
3.313 11.996 1.094
6.483 9.9 11.128
2.631 7.393 8.688
10.449 11.187 3.812
11.407 9.423 2.927
9.703 10.443 1.771
4.871 0.497 9.176
6.042 0.531 11.032
6.931 1.517 9.155
11.698 2.087 0.247
11.65 4.241 0.664
12.852 2.878 2.07
9.494 2.652 6.349
8.175 4.03 7.434
7.27 2.112 6.549
12.709 5.685 11.214
12.678 3.498 11.029
11.65 4.461 12.845
5.623 3.262 4.759
3.692 3.042 5.78
4.681 5.116 5.737
9.383 13.12 10.621
8.884 13.023 8.486
8.272 11.268 9.836
11.895 13.05 4.213
11.823 13.116 2.021
12.657 11.23 3.035
4.113 6.208 3.863
2.037 5.702 4.365
2.719 7.886 4.586
0.366 4.309 8.728
0.405 2.125 8.525
1.826 3.112 10.037
1.524 5.364 12.544
2.785 3.568 12.57
3.606 5.471 11.576
0.114 12.776 10.859
0.252 12.784 8.669
1.772 11.538 9.859
5.904 9.968 4.663
7.236 8.509 3.707
8.171 10.339 4.736
7.464 7.369 0.011
7.875 5.217 0.149
6.464 6.166 1.695
9.869 8.679 9.731
11.38 9.387 11.157
10.449 10.903 9.703
1.956 7.031 1.59
3.58 5.683 0.991
1.46 4.822 1.197
11.036 3.844 7.759
11.768 5.919 8.971
9.934 5.707 5.142
8.456 7.526 5.996
2.639 3.432 2.877
2.059 1.824 1.037
5.898 2.49 2.736
6.037 0.0 2.842
4.725 12.74 3.142
4.597 10.295 2.582
1.418 13.115 2.464
0.924 12.129 0.226
6.276 8.263 13.132
4.545 8.178 11.314
6.29 11.657 13.023
6.583 12.4 10.659
2.651 9.066 10.674
2.758 9.964 8.331
4.787 6.555 9.857
3.966 5.42 7.793
8.673 3.807 9.569
10.529 3.781 10.702
9.331 5.597 10.646
10.988 8.705 5.429
11.046 8.39 7.573
12.194 7.092 6.226
1.472 1.45 4.766
0.024 2.037 3.254
0.937 0.064 3.156
6.406 0.742 0.115
4.32 0.159 0.202
4.878 2.277 0.069
5.982 13.127 0.472
7.105 11.7 1.667
5.9 10.99 0.0
0.041 10.25 2.179
1.973 9.476 1.57
1.735 10.469 3.513
8.275 7.539 11.048
6.686 6.059 11.158
6.758 7.433 9.472
3.819 12.694 11.291
3.894 10.814 10.213
3.62 10.838 12.391
0.0 7.923 9.948
0.039 10.074 9.633
0.081 8.737 7.916
6.101 7.137 7.008
4.326 8.281 6.517
5.544 8.812 8.264
9.618 6.644 6.235
10.667 5.095 8.446
5.274 1.193 2.415
2.503 2.036 2.424
1.74 12.086 1.458
4.531 11.692 2.124
6.049 11.386 11.594
5.923 8.496 11.719
4.073 6.671 8.573
2.338 8.89 9.244
