POSCAR file written by OVITO Basic 3.10.4
1
13.16 0.0 0.0
0.0 13.097 0.0
0.0 0.0 13.072
H Li C N O F S 
96 2 52 2 56 12 4 
Cartesian
9.082 3.893 6.981
8.327 5.381 6.312
9.773 4.681 5.554
4.668 1.23 4.473
5.881 0.341 5.419
4.932 1.672 6.166
13.077 8.668 12.892
13.09 7.527 11.502
12.238 7.113 13.006
9.224 11.526 9.753
9.772 12.125 11.333
10.95 11.827 10.008
6.017 9.003 6.635
7.728 9.501 6.395
7.296 8.324 7.654
6.881 5.864 1.917
5.305 5.907 2.735
6.064 7.42 2.129
9.722 3.779 2.585
8.664 4.929 3.473
9.14 5.25 1.792
4.96 0.612 2.189
6.514 0.051 1.534
6.35 0.467 3.275
0.354 4.178 4.757
0.061 3.742 6.477
0.094 2.489 5.217
5.808 4.726 6.435
5.305 5.065 4.765
4.567 5.953 6.143
1.314 13.072 9.971
2.92 12.356 10.344
1.459 11.792 11.184
1.631 9.85 5.24
0.253 10.93 5.545
1.927 11.579 5.475
3.759 3.425 8.024
2.963 2.511 9.351
2.549 2.187 7.654
8.221 0.002 9.133
8.303 1.272 7.893
7.917 1.682 9.6
11.609 7.119 6.363
11.055 6.635 8.003
12.609 6.056 7.365
12.824 12.119 8.889
13.083 11.863 7.15
11.452 11.647 7.875
8.327 11.498 3.195
6.999 10.676 2.305
8.35 9.741 2.983
4.489 11.834 7.439
6.118 12.525 7.595
5.022 13.054 6.272
10.377 12.407 5.497
11.126 12.52 3.867
12.123 12.645 5.332
10.136 6.795 4.354
9.493 7.469 5.867
8.879 8.039 4.276
1.693 5.886 3.301
3.28 5.049 3.404
2.458 5.241 1.841
4.823 10.649 3.915
3.051 10.704 3.792
3.85 9.753 5.092
5.22 9.887 11.708
5.645 9.321 10.056
6.143 8.393 11.487
0.0 7.907 10.409
0.34 8.697 11.964
0.634 9.56 10.414
0.418 1.749 7.337
0.004 0.0 7.296
1.507 0.592 6.557
1.777 0.699 12.806
1.897 2.329 12.109
0.333 1.443 12.103
11.637 5.335 1.37
11.197 5.326 3.113
12.894 5.476 2.609
9.656 10.713 1.501
10.254 9.973 0.0
8.9 9.224 0.915
7.651 8.638 13.072
9.36 9.059 12.706
8.583 7.666 11.924
6.439 13.097 9.679
5.162 12.164 10.487
6.455 12.967 11.444
7.867 3.265 12.492
7.029 1.954 11.592
6.312 2.643 13.064
5.976 6.602 8.232
6.981 7.246 9.548
7.574 5.898 8.518
1.639 10.159 12.929
2.67 8.074 13.011
7.118 2.872 5.767
8.836 4.445 6.068
5.428 1.323 5.255
11.35 9.768 11.413
12.496 7.932 12.326
10.031 11.478 10.491
6.582 7.634 4.591
7.06 8.672 6.643
6.246 6.445 2.593
7.526 2.541 2.444
8.873 4.465 2.506
6.047 0.727 2.256
2.714 4.312 5.645
0.537 3.436 5.541
4.957 4.99 5.799
1.581 11.548 7.976
1.851 12.154 10.229
1.301 10.738 5.789
5.604 1.799 8.596
3.363 2.453 8.336
7.784 0.948 8.799
12.143 9.23 7.64
11.919 6.906 7.391
12.528 11.515 8.025
6.543 11.506 4.981
7.697 10.605 3.144
5.354 12.207 6.881
10.404 9.963 4.864
11.251 12.153 4.889
9.76 7.704 4.833
3.221 7.884 3.515
2.655 5.718 2.807
3.904 10.068 4.045
3.002 8.91 11.003
5.347 9.013 11.062
0.675 8.594 10.928
1.03 1.104 9.7
0.813 0.729 7.391
1.419 1.351 12.003
10.789 7.701 1.614
11.864 5.749 2.358
9.85 9.762 0.994
7.29 10.585 11.505
8.419 8.683 12.294
6.222 12.43 10.519
6.905 4.603 10.579
6.897 2.874 12.169
6.7 6.337 9.009
2.868 8.111 7.802
2.443 4.919 11.639
11.471 2.772 7.661
10.47 5.277 11.881
3.692 6.456 9.731
10.615 4.798 9.177
8.024 3.687 5.171
6.426 2.232 4.791
6.953 2.739 6.969
11.28 8.472 11.81
10.129 10.128 10.945
12.339 10.483 11.468
7.298 7.59 5.742
6.922 6.552 3.846
5.775 8.495 4.28
7.692 3.821 2.026
6.367 2.075 1.915
8.287 1.918 3.169
1.928 3.213 5.77
3.994 3.941 5.898
2.336 5.436 5.355
1.668 11.121 9.261
1.418 10.458 7.184
1.64 12.708 7.598
4.343 1.417 8.273
6.409 0.711 8.496
5.953 2.924 8.919
12.601 8.004 7.997
12.881 10.159 8.299
11.229 9.458 6.863
6.964 10.382 4.349
5.863 11.131 6.093
6.74 12.654 4.612
11.509 10.75 4.859
10.812 8.669 4.826
9.247 10.35 4.898
3.364 6.932 2.56
3.953 8.964 3.142
2.551 7.788 4.531
4.167 8.215 10.98
1.982 8.019 10.911
2.89 10.122 11.09
1.529 0.483 8.602
1.808 0.769 10.759
0.054 1.837 9.73
11.769 7.173 2.39
10.823 9.05 1.758
10.013 7.073 0.911
8.032 9.495 11.185
7.01 11.251 10.356
6.936 10.91 12.627
6.157 3.816 11.393
6.065 5.431 9.91
8.121 4.571 10.469
2.764 5.486 7.509
1.168 6.566 9.121
4.412 3.99 10.074
4.976 5.705 11.797
13.16 4.465 8.785
11.939 2.846 10.267
11.437 7.064 10.131
8.996 6.548 10.072
4.12 8.13 7.321
2.016 8.288 6.793
2.706 9.077 8.701
2.712 4.266 12.76
1.846 6.071 11.927
1.666 4.158 10.866
11.365 3.567 6.586
12.447 1.89 7.45
10.325 2.131 7.872
9.882 6.094 12.742
9.843 4.106 11.879
11.752 5.133 12.222
4.04 5.247 10.747
2.537 6.462 8.591
10.38 6.038 10.188
11.895 3.801 9.148
